webassembly/ejemplos_dzn/6/folder6_json_4.dzn
TERM = { '.', 's(2)', 'in_1', 'local_1', 'in_2', 'in_3', 's(1)', 's(0)', 'in_0'};
null = '.';
s = 6;
n = 9;
ndeps = 3;
max_registers_sz = 4;
NR = 1;
registers = [|'local_1', 's(0)'|];
dependencies = [|'i32.load16_u_0', 'call[function_index(0)]_1', |'call[function_index(0)]_1', 'i32.load16_s_4', |'i32.load16_s_4', 'call[function_index(1)]_5'|];
GET_ENUM = { GET1, GET2, GET3, GET4, GET5};
SET_ENUM = { SET1, SET2, SET3, SET4, SET5};
TEE_ENUM = { TEE1, TEE2, TEE3, TEE4, TEE5};
N = 5;
OP = { 'call[function_index(0)]_1', 'call[function_index(1)]_5', 'i32.load16_u_0', 'i32.sub_0', 'i32.load16_s_4' };
in_ops = [0, 2, 1, 2, 1 ];
out_ops = [0, 0, 1, 1, 1 ];
in1 = ['.', 's(2)', 'in_0', 'in_1', 's(1)' ];
in2 = ['.', 'in_3', '.', 'in_2', '.' ];
in3 = ['.', '.', '.', '.', '.' ];
out1 = ['.', '.', 's(0)', 's(1)', 's(2)' ];
out2 = ['.', '.', '.', '.', '.' ];
out3 = ['.', '.', '.', '.', '.' ];
comm = [false, false, false, false, false ];
gas = [1, 1, 1, 1, 1 ];
sz = [1, 1, 1, 1, 1 ];
stor = [true, true, false, false, false ];
lb = [ 1, 1, 1, 1, 1 ];
ub = [ 6, 6, 6, 6, 6 ];
startstack = [ 'in_0', 'in_1', 'in_2', 'in_3', null, null, null, null, null ];
endstack = [ null, null, null, null, null, null, null, null, null ];
