webassembly/ejemplos_results/6/folder6_json_4.txt
value = 6;
fgas = [1, 1, 1, 1, 1, 1];
fsize = [1, 1, 1, 1, 1, 1];
states = 
[|   in_0, in_1, in_2, in_3, '.', '.', '.', '.',  '.'
 | 's(0)', in_1, in_2, in_3, '.', '.', '.', '.',  '.'
 |   in_1, in_2, in_3,  '.', '.', '.', '.', '.',  '.'
 | 's(1)', in_3,  '.',  '.', '.', '.', '.', '.', in_0
 | 's(2)', in_3,  '.',  '.', '.', '.', '.', '.', in_0
 | 's(2)', in_3,  '.',  '.', '.', '.', '.', '.', in_0
 |    '.',  '.',  '.',  '.', '.', '.', '.', '.',  '.'
 |];
register_states = 
[| local_1, '.', '.', '.', '.'
 | local_1, '.', '.', '.', '.'
 |  's(0)', '.', '.', '.', '.'
 |  's(0)', '.', '.', '.', '.'
 |  's(0)', '.', '.', '.', '.'
 |  's(0)', '.', '.', '.', '.'
 |  's(0)', '.', '.', '.', '.'
 |];
program = [O('i32.load16_u_0'), S(SET1), O('i32.sub_0'), O('i32.load16_s_4'), O('call[function_index(0)]_1'), O('call[function_index(1)]_5')];
% time elapsed: 0.07 s
----------
==========
% time elapsed: 0.07 s
% [value > 5]
